HUN,8,6,843
5,70,4,64,0,90,1,38,3,43,2,96
0,78,5,15,1,13,3,74,2,77,4,75
0,32,3,21,1,31,2,34,4,37,5,88
2,15,1,15,0,21,4,6,3,99,5,6
5,95,0,45,3,61,2,35,4,44,1,3
5,43,0,9,1,40,3,98,2,71,4,48
4,70,2,51,5,33,3,24,1,73,0,11
3,1,1,70,5,57,4,91,0,74,2,66
